[30848, 26384, 24612, 22620, 21336, 21336, 21336, 21336, 21336, 19604, 19500, 15820, 17688, 16544, 16544, 16544, 16544, 15642, 15600, 15600, 15408, 14958, 14800, 13696, 13680, 13680, 13680, 13680, 12928, 12528, 12528, 12144, 12144, 12144, 11856, 11856, 11228, 10990, 10556, 10024, 9972, 9276, 8964, 8700, 8700, 8700, 7840, 7840, 7840, 7840, 5220, 5220, 5178, 5178, 5178, 5178, 4974, 4974, 4800, 4800, 4800, 4800, 4704, 4800, 4800, 4716, 4674, 4674, 4674, 3340, 3340, 3200, 3116, 3116, 2988, 1578, 1578, 1578, 1578, 1538, 1538, 1538, 1538, 1538, 1538, 1538, 1538, 1538, 1504, 1504, 1504, 1504, 1504, 1504, 1504, 1504, 1504, 1504, 1504, 1504, 1504, 1504, 1504, 1504, 1504, 1504, 1504, 1504, 1504, 1504, 1504, 1504, 1504, 1504, 1504, 1504, 1504, 1504, 1504, 1504, 1504, 1504, 1504, 1504, 1504, 1504, 1504, 1504, 1504, 1504, 1504, 1504, 1504, 1504, 1504, 1504, 1504, 1504, 1504, 1504, 1504, 1504, 1504, 1504, 1504, 1504, 1504, 1504, 1504, 1504, 1504, 1504, 1504, 1504, 1504, 1504, 1504, 1504, 1456, 1456, 1456, 1456, 1456, 1456, 1456, 1456, 1456, 1438, 1438, 1438, 1438, 1438, 1438, 1438, 1438, 1438, 1438, 1438, 1434, 1434, 1434, 1434, 1434, 1408, 1408, 1408, 1408, 1408, 1408, 1408, 1394, 1394, 1394, 1394, 1394, 1394, 1394, 1394, 1394, 1392]